% demand
num_movements = 20;
loading_factor = [1150, 1100, 1900, 800, 1750, 950, 1500, 800, 1200, 1850, 1600, 1350, 800, 1600, 1800, 1600, 1100, 900, 1450, 1250];
pickup_time = [0, 0, 0, 1, 1, 2, 2, 2, 2, 4, 4, 5, 5, 6, 6, 6, 6, 6, 8, 8];
delivery_time = [1, 2, 1, 2, 2, 5, 3, 5, 5, 5, 6, 6, 6, 9, 10, 8, 8, 9, 10, 9];

% transporter definition
total_capacity = 7000;
num_decks = 3;
capacity = [3000, 1000, 3000];

% ways out of decks
num_ways_out = 1;
paths_out = array3d(decks, ways_out, decks, [
% ways out of deck d1
2, 3, 0, 

% ways out of deck d2
3, 0, 0, 

% ways out of deck d3
0, 0, 0,	

]);

